c FILE /home/rafael/Documents/HappySet/MIHS/inputs/happygen/output/graph_d_regular_k3_p0.3_v50_20241127_082600.txt
c SOURCE This is a d-regular graph formed for the happy graph colouring problem.
c DESCRIPTION It was generated using the problem generator of Rhyd Lewis
c
c GRAPH STATS
c Seed                             = 1380749600
c Number of Nodes                  = 50
c Number of colours k              = 3
c Number of pre-assignments        = 15
c Degree of all vertices           = 6
c Density                          = 0.122449
c 
c The degrees of nodes 1 to 50, respectively, are as follows 
c [6, 6, 6, 6, 6, 6, 6, 6, 6, 6, 6, 6, 6, 6, 6, 6, 6, 6, 6, 6, 6, 6, 6, 6, 6, 6, 
c  6, 6, 6, 6, 6, 6, 6, 6, 6, 6, 6, 6, 6, 6, 6, 6, 6, 6, 6, 6, 6, 6, 6, 6] 
c  
p edge 50 150 3
e 1 14
e 1 18
e 1 29
e 1 35
e 1 36
e 1 47
e 2 19
e 2 21
e 2 24
e 2 32
e 2 40
e 2 43
e 3 6
e 3 10
e 3 12
e 3 23
e 3 38
e 3 48
e 4 16
e 4 26
e 4 27
e 4 31
e 4 35
e 4 48
e 5 6
e 5 12
e 5 23
e 5 25
e 5 29
e 5 44
e 6 16
e 6 17
e 6 18
e 6 26
e 7 11
e 7 13
e 7 17
e 7 25
e 7 31
e 7 35
e 8 19
e 8 22
e 8 24
e 8 40
e 8 47
e 8 49
e 9 15
e 9 16
e 9 21
e 9 22
e 9 29
e 9 34
e 10 16
e 10 26
e 10 30
e 10 40
e 10 44
e 11 14
e 11 15
e 11 17
e 11 38
e 11 46
e 12 27
e 12 30
e 12 41
e 12 42
e 13 21
e 13 28
e 13 41
e 13 42
e 13 47
e 14 28
e 14 37
e 14 44
e 14 45
e 15 17
e 15 33
e 15 39
e 15 45
e 16 24
e 16 50
e 17 25
e 17 34
e 18 22
e 18 28
e 18 35
e 18 49
e 19 42
e 19 44
e 19 49
e 19 50
e 20 31
e 20 35
e 20 37
e 20 41
e 20 47
e 20 50
e 21 25
e 21 31
e 21 33
e 22 38
e 22 39
e 22 48
e 23 31
e 23 32
e 23 38
e 23 40
e 24 33
e 24 48
e 24 50
e 25 30
e 25 44
e 26 30
e 26 32
e 26 46
e 27 37
e 27 39
e 27 46
e 27 48
e 28 32
e 28 36
e 28 42
e 29 32
e 29 34
e 29 45
e 30 38
e 30 39
e 31 47
e 32 45
e 33 36
e 33 43
e 33 44
e 34 36
e 34 40
e 34 47
e 35 37
e 36 38
e 36 43
e 37 39
e 37 41
e 39 41
e 40 49
e 41 42
e 42 43
e 43 45
e 43 49
e 45 46
e 46 49
e 46 50
e 48 50
n 1 1
n 8 1
n 12 1
n 16 2
n 17 3
n 21 2
n 22 1
n 26 1
n 27 1
n 28 3
n 29 1
n 40 1
n 41 1
n 47 1
n 48 1
